NAME : problems/30-tsp/instance-42.tsp
COMMENT : No Comment
TYPE : TSP
DIMENSION: 30
EDGE_WEIGHT_TYPE : EUC_2D
NODE_COORD_SECTION
1 1341 328 
2 6763 5858 
3 3890 3249 
4 1131 2013 
5 4731 5041 
6 6762 8142 
7 1233 3756 
8 3499 8857 
9 1847 5901 
10 5655 752 
11 2389 1781 
12 9320 3264 
13 2020 7572 
14 600 9535 
15 8962 2682 
16 4263 1134 
17 3778 380 
18 3743 3698 
19 4158 7262 
20 9128 2960 
21 2397 7036 
22 3443 8668 
23 7814 2397 
24 8112 6276 
25 4361 3970 
26 7770 2848 
27 1706 5356 
28 4513 8229 
29 8013 1927 
30 9729 6461 
EOF
